/*Objective Function*/

max: +420 A1 +420 A2 +420 A3 +420 B1 +420 B2 +420 B3 +300 C1 +300 C2 +300 C3;

/*Constraints*/
+A1 + B1 + C1 <= 750;
+A2 + B2 + C2 <= 900;
+A3 + B3 + C3 <= 450;
+20 A1 +15 B1 +12 C1 <= 13000;
+20 A2 +15 B2 +12 C2 <= 12000;
+20 A3 +15 B3 +12 C3 <= 5000;
+A1 +A2 +A3 <= 900;
+B1 +B2 +B3 <= 1200;
+C1 +C2 +C3 <= 750;

